
;this file is automatically generated: Mon Nov 02 10:43:04 CST 2020

;declarations generated

(declare-fun oclExcludes ( Int Int) Bool)
(declare-fun class17_Class17IntAttr5 ( Int) Int)
(declare-fun class17_Class17IntAttr6 ( Int) Int)
(declare-fun class17_Class17IntAttr4 ( Int) Int)
(declare-fun Cardinality ( Int) Int)
(declare-fun type_22b01297_4df1_44dd_9f08_479fbf7865ec_Class0 ( Int) Bool)
(declare-fun type_22b01297_4df1_44dd_9f08_479fbf7865ec_Class4 ( Int) Bool)
(declare-fun type_22b01297_4df1_44dd_9f08_479fbf7865ec_Class3 ( Int) Bool)
(declare-fun type_22b01297_4df1_44dd_9f08_479fbf7865ec_Class2 ( Int) Bool)
(declare-fun type_22b01297_4df1_44dd_9f08_479fbf7865ec_Class1 ( Int) Bool)
(declare-fun type_22b01297_4df1_44dd_9f08_479fbf7865ec_Class8 ( Int) Bool)
(declare-fun type_22b01297_4df1_44dd_9f08_479fbf7865ec_Class7 ( Int) Bool)
(declare-fun type_22b01297_4df1_44dd_9f08_479fbf7865ec_Class6 ( Int) Bool)
(declare-fun type_22b01297_4df1_44dd_9f08_479fbf7865ec_Class5 ( Int) Bool)
(declare-fun type_22b01297_4df1_44dd_9f08_479fbf7865ec_Class9 ( Int) Bool)
(declare-fun type_22b01297_4df1_44dd_9f08_479fbf7865ec_Class12 ( Int) Bool)
(declare-fun type_22b01297_4df1_44dd_9f08_479fbf7865ec_Class13 ( Int) Bool)
(declare-fun type_22b01297_4df1_44dd_9f08_479fbf7865ec_Class10 ( Int) Bool)
(declare-fun type_22b01297_4df1_44dd_9f08_479fbf7865ec_Class11 ( Int) Bool)
(declare-fun type_22b01297_4df1_44dd_9f08_479fbf7865ec_Class16 ( Int) Bool)
(declare-fun type_22b01297_4df1_44dd_9f08_479fbf7865ec_Class17 ( Int) Bool)
(declare-fun type_22b01297_4df1_44dd_9f08_479fbf7865ec_Class14 ( Int) Bool)
(declare-fun type_22b01297_4df1_44dd_9f08_479fbf7865ec_Class15 ( Int) Bool)
(declare-fun oclSelect ( Int Bool) Int)
(declare-fun Enum0 ( Int) Int)
(declare-fun Enum1 ( Int) Int)
(declare-fun Enum2 ( Int) Int)
(declare-fun container_ ( Int) Int)
(declare-fun oclIncludes ( Int Int) Bool)
(declare-fun obj_40da0725_0cb1_4611_a1c4_bd5f6da5975f ( Int) Int)
(declare-fun ObjAt ( Int Int) Int)

;formula(s) generated
(assert (forall ((p Int)) (=> ( type_22b01297_4df1_44dd_9f08_479fbf7865ec_Class17 p )  (and (>= ( Enum2 ( obj_40da0725_0cb1_4611_a1c4_bd5f6da5975f p )  )  0) (<= ( Enum2 ( obj_40da0725_0cb1_4611_a1c4_bd5f6da5975f p )  )  6)))))
(assert (! (forall ((v Int)) (=> ( type_22b01297_4df1_44dd_9f08_479fbf7865ec_Class17 v )  (or (> ( class17_Class17IntAttr4 ( obj_40da0725_0cb1_4611_a1c4_bd5f6da5975f v )  )  1) (or (forall ((c7_2 Int)(c7_1 Int)) (=> (and ( type_22b01297_4df1_44dd_9f08_479fbf7865ec_Class17 c7_1 )  ( type_22b01297_4df1_44dd_9f08_479fbf7865ec_Class17 c7_2 ) ) (not (= ( class17_Class17IntAttr5 ( obj_40da0725_0cb1_4611_a1c4_bd5f6da5975f c7_1 )  )  ( class17_Class17IntAttr6 ( obj_40da0725_0cb1_4611_a1c4_bd5f6da5975f c7_2 )  ) ) ))) (forall ((v Int)) (=> ( type_22b01297_4df1_44dd_9f08_479fbf7865ec_Class17 v )  (not (= ( Enum2 ( obj_40da0725_0cb1_4611_a1c4_bd5f6da5975f v )  )  4) ))))))):named l0))
(assert (! (exists ((o Int)) ( type_22b01297_4df1_44dd_9f08_479fbf7865ec_Class0 ( obj_40da0725_0cb1_4611_a1c4_bd5f6da5975f o )  ) ):named c0))
(assert (! (exists ((o Int)) ( type_22b01297_4df1_44dd_9f08_479fbf7865ec_Class1 ( obj_40da0725_0cb1_4611_a1c4_bd5f6da5975f o )  ) ):named c1))
(assert (! (exists ((o Int)) (and (and ( type_22b01297_4df1_44dd_9f08_479fbf7865ec_Class10 ( obj_40da0725_0cb1_4611_a1c4_bd5f6da5975f o )  )  ( type_22b01297_4df1_44dd_9f08_479fbf7865ec_Class14 ( obj_40da0725_0cb1_4611_a1c4_bd5f6da5975f o )  ) ) ( type_22b01297_4df1_44dd_9f08_479fbf7865ec_Class16 ( obj_40da0725_0cb1_4611_a1c4_bd5f6da5975f o )  ) )):named c2))
(assert (! (exists ((o Int)) ( type_22b01297_4df1_44dd_9f08_479fbf7865ec_Class11 ( obj_40da0725_0cb1_4611_a1c4_bd5f6da5975f o )  ) ):named c3))
(assert (! (exists ((o Int)) ( type_22b01297_4df1_44dd_9f08_479fbf7865ec_Class12 ( obj_40da0725_0cb1_4611_a1c4_bd5f6da5975f o )  ) ):named c4))
(assert (! (exists ((o Int)) ( type_22b01297_4df1_44dd_9f08_479fbf7865ec_Class13 ( obj_40da0725_0cb1_4611_a1c4_bd5f6da5975f o )  ) ):named c5))
(assert (! (exists ((o Int)) ( type_22b01297_4df1_44dd_9f08_479fbf7865ec_Class14 ( obj_40da0725_0cb1_4611_a1c4_bd5f6da5975f o )  ) ):named c6))
(assert (! (exists ((o Int)) ( type_22b01297_4df1_44dd_9f08_479fbf7865ec_Class15 ( obj_40da0725_0cb1_4611_a1c4_bd5f6da5975f o )  ) ):named c7))
(assert (! (exists ((o Int)) (and ( type_22b01297_4df1_44dd_9f08_479fbf7865ec_Class16 ( obj_40da0725_0cb1_4611_a1c4_bd5f6da5975f o )  )  ( type_22b01297_4df1_44dd_9f08_479fbf7865ec_Class14 ( obj_40da0725_0cb1_4611_a1c4_bd5f6da5975f o )  ) )):named c8))
(assert (! (exists ((o Int)) ( type_22b01297_4df1_44dd_9f08_479fbf7865ec_Class17 ( obj_40da0725_0cb1_4611_a1c4_bd5f6da5975f o )  ) ):named c9))
(assert (! (exists ((o Int)) ( type_22b01297_4df1_44dd_9f08_479fbf7865ec_Class2 ( obj_40da0725_0cb1_4611_a1c4_bd5f6da5975f o )  ) ):named c10))
(assert (! (exists ((o Int)) ( type_22b01297_4df1_44dd_9f08_479fbf7865ec_Class3 ( obj_40da0725_0cb1_4611_a1c4_bd5f6da5975f o )  ) ):named c11))
(assert (! (exists ((o Int)) ( type_22b01297_4df1_44dd_9f08_479fbf7865ec_Class4 ( obj_40da0725_0cb1_4611_a1c4_bd5f6da5975f o )  ) ):named c12))
(assert (! (exists ((o Int)) ( type_22b01297_4df1_44dd_9f08_479fbf7865ec_Class5 ( obj_40da0725_0cb1_4611_a1c4_bd5f6da5975f o )  ) ):named c13))
(assert (! (exists ((o Int)) ( type_22b01297_4df1_44dd_9f08_479fbf7865ec_Class6 ( obj_40da0725_0cb1_4611_a1c4_bd5f6da5975f o )  ) ):named c14))
(assert (! (exists ((o Int)) ( type_22b01297_4df1_44dd_9f08_479fbf7865ec_Class7 ( obj_40da0725_0cb1_4611_a1c4_bd5f6da5975f o )  ) ):named c15))
(assert (! (exists ((o Int)) ( type_22b01297_4df1_44dd_9f08_479fbf7865ec_Class8 ( obj_40da0725_0cb1_4611_a1c4_bd5f6da5975f o )  ) ):named c16))
(assert (! (exists ((o Int)) ( type_22b01297_4df1_44dd_9f08_479fbf7865ec_Class9 ( obj_40da0725_0cb1_4611_a1c4_bd5f6da5975f o )  ) ):named c17))

 ;end of formula 